Problem:    min
Rows:       47
Columns:    13 (13 integer, 13 binary)
Non-zeros:  105
Status:     INTEGER OPTIMAL
Objective:  z = 109 (MINimum)

   No.   Row name        Activity     Lower bound   Upper bound
------ ------------    ------------- ------------- -------------
     1 z                         109                             
     2 covered[1,2]                1             1               
     3 covered[1,3]                1             1               
     4 covered[2,4]                1             1               
     5 covered[2,5]                2             1               
     6 covered[2,8]                1             1               
     7 covered[3,4]                1             1               
     8 covered[3,6]                2             1               
     9 covered[3,9]                1             1               
    10 covered[4,5]                1             1               
    11 covered[4,7]                1             1               
    12 covered[5,8]                1             1               
    13 covered[5,7]                2             1               
    14 covered[6,7]                2             1               
    15 covered[6,9]                1             1               
    16 covered[7,9]                1             1               
    17 covered[8,10]
                                   1             1               
    18 covered[8,11]
                                   1             1               
    19 covered[9,10]
                                   1             1               
    20 covered[9,12]
                                   1             1               
    21 covered[10,11]
                                   2             1               
    22 covered[10,12]
                                   2             1               
    23 covered[11,13]
                                   1             1               
    24 covered[12,13]
                                   1             1               
    25 covered[2,1]                1             1               
    26 covered[3,1]                1             1               
    27 covered[4,2]                1             1               
    28 covered[5,2]                2             1               
    29 covered[8,2]                1             1               
    30 covered[4,3]                1             1               
    31 covered[6,3]                2             1               
    32 covered[9,3]                1             1               
    33 covered[5,4]                1             1               
    34 covered[7,4]                1             1               
    35 covered[8,5]                1             1               
    36 covered[7,5]                2             1               
    37 covered[7,6]                2             1               
    38 covered[9,6]                1             1               
    39 covered[9,7]                1             1               
    40 covered[10,8]
                                   1             1               
    41 covered[11,8]
                                   1             1               
    42 covered[10,9]
                                   1             1               
    43 covered[12,9]
                                   1             1               
    44 covered[11,10]
                                   2             1               
    45 covered[12,10]
                                   2             1               
    46 covered[13,11]
                                   1             1               
    47 covered[13,12]
                                   1             1               

   No. Column name       Activity     Lower bound   Upper bound
------ ------------    ------------- ------------- -------------
     1 x[1]         *              0             0             1 
     2 x[2]         *              1             0             1 
     3 x[3]         *              1             0             1 
     4 x[4]         *              0             0             1 
     5 x[5]         *              1             0             1 
     6 x[6]         *              1             0             1 
     7 x[7]         *              1             0             1 
     8 x[8]         *              0             0             1 
     9 x[9]         *              0             0             1 
    10 x[10]        *              1             0             1 
    11 x[11]        *              1             0             1 
    12 x[12]        *              1             0             1 
    13 x[13]        *              0             0             1 

Integer feasibility conditions:

KKT.PE: max.abs.err = 0.00e+00 on row 0
        max.rel.err = 0.00e+00 on row 0
        High quality

KKT.PB: max.abs.err = 0.00e+00 on row 0
        max.rel.err = 0.00e+00 on row 0
        High quality

End of output
